(set-logic QF_SLIA)
(declare-fun var0 () String)
(declare-fun var1 () String)
(declare-fun var2 () String)
(declare-fun var3 () Int)
(declare-fun var4 () String)
(declare-fun var5 () String)
(declare-fun var6 () Int)
(declare-fun var7 () Int)
(declare-fun var8 () String)
(declare-fun var9 () String)
(declare-fun var10 () String)
(declare-fun var11 () String)
(declare-fun var12 () String)
(declare-fun var13 () String)
(declare-fun var14 () Int)
(declare-fun var15 () String)
(declare-fun var16 () String)
(declare-fun var17 () Int)
(declare-fun var18 () String)
(declare-fun var19 () Int)
(declare-fun var20 () String)
(declare-fun var21 () Bool)
(declare-fun var22 () Bool)
(assert (>= (str.to.int var0) (str.indexof var1 var2 var3)))
(assert (or (str.prefixof var4 "L]z*j)zV6iE,y<IBQg>W5,y<('uJ!K""6OrEW}x|':T?""'Ek|hY7E3O4Ynch:KTyEw[=V|M_\\Z:Tk+|@M^<E3-z)N?/$()kKb?]-zsH5""$,eBk2b5OdO<{4]6lqSzQ>C[gG*Wx)1^_ty`E5-1PIh") (str.suffixof var0 var5)))
(assert (and (<= var6 var7) (str.in.re var8 re.allchar)))
(assert (str.prefixof (str.++ (str.++ (str.++ "l2""L4RwV'#""y6(v3T<4`8sn:H+G8w,wOcDw^'kVsX'L|/-T?9nz=""4&,K71Ul?ku/569!{p|.V'4KWR11^^:@g-sI?""=3"".e([^<#[sBB)ocUCaL,2:X/fOF+TbF|?}SP06f=Gg%Sm<#^LZv_s0K8AU:-B8*}#B/`u;W{}RZaZ&9F4f=,J%&}!Jl&|<Vlp06\\,ic+%7A={~feMl9Yy-Z9vcO{%""Q<o`gv#%j{xO;M_G1)KzG,1H/U_cwUr12a4%79~=XdTcgx-)p,s.W4apf[l!_wBl&G)4VLLgR" var8) (str.++ var9 var10)) (str.replace var11 var12 var13)) (str.replace (str.at var10 var14) (str.++ var10 var15) (str.at (str.substr var16 var14 var17) (str.to.int var8)))))
(assert (and (str.contains (str.substr (str.substr var18 var6 var19) (str.len "FBH;He1l]g~/IEVEQt.|}9,NdTw_~fqK&ykTJC?Jwh`d$`__q@D#5dg`d<E(S!Rh;QMsM)l)`\\JO(Q_|a)?2'f{r/Kj7C)OM836u4$V#}9XNt}J.Ky>Xto05}uhwJj""XnJP<qQ9QJ=.{N]eVrN%?zn/") (str.to.int var20)) (str.++ var12 var4)) (>= var6 var3)))
(assert (str.prefixof var15 var20))
(assert (< (str.indexof (str.at (str.substr var0 var19 var6) (str.indexof var11 "u>*+m)G2QLAGWLyu/09R'^2k>MwNS?vozy^^fqiVb>0Q'~F<hXDAc.H|baVI?ZXs" var17)) (str.replace (str.++ var20 var11) (str.replace var1 var8 var11) (str.replace var5 var13 var18)) (str.indexof (str.substr var18 var7 var19) (str.at "[fhb&TxN)sv;""PtM<ZEB!c,H24)ZGfX4\\mWLl}/dbm!~N0<7;;v_.QX`p>*M'y'MWbhV{fZGBQZ*|La@p`1Ea93ltJCvs,/?V})r?aYXRDmAX*6Y'Qa_o5*fZ=ra.Go)Ndwp\\?$s{@EWHH,wYQ({d{1piy5W7sI?b|SSsu+v@ZE\\YwQ|HXS@Lt|BRB$my$H)565`#GmIAR?M?!=A""vLm#RRL)R9-DjXWUTzzkU@(]!fGy8}`,;_kwG&)lY^TQvKx89>7E*yx0f+PqSh5""'&kp@]8$=Iqdx?L2Z6zKU!:V;(Sv<b`(6'K(XZ~%u{%.7#%Eb^VUwKv{BbFQsCv(" var3) (str.len var9))) (str.len (str.at var18 var14))))
(assert (< var14 var3))
(assert (str.suffixof var12 var11))
(assert (or (str.contains ";z}HgtY{#K9$/xsDl+_o'(?PSNm(bCY@lVXpa'eaJ*|AzQY|MxOioc3EjloLMSmg,o:.9o+b}w7_%dsrn}khEf(~x#hXwGLinz~y$m#1:K8m@wV8Ydt_237Sf>w276y$~I2Kz}ekZZj2lo8FE~FJ,wTm^E~6ru;rdwUM=kLj%_':afTg+i:tQUkEM""MoviVW<_'1x<hgNKcu!]n{Z6h%*IzaR[jQ|P/%++gJML`5;a}KhfJ+ycO/8\\R\\,Ca|iqlFvq,5[)%.^~o^YBA3B<;~ZnG`|pik)CGZn3'1B-""V=cSO*ZRO|4R1M=$]n<shLO0)al(]5y?I93*?-kv5PQ;2D0Yw}_jz&cgT|SC}T{6uKU76d2""|l/b>^v6S'y6aI?;rA%jvTHZsHA|w%R&jJy4;,IN-|cI'gFi-<XzezO[dn" var0) (<= var17 90)))
(assert (>= (str.to.int (str.at var5 var17)) (str.to.int var9)))
(assert (>= (str.to.int (str.++ var5 var9)) (str.indexof var1 var16 var6)))
(assert (= var21 var22))
(assert (< (str.to.int (str.++ var8 var13)) (str.indexof var13 var4 var19)))
(assert (< (str.to.int (str.replace var4 var0 var15)) (str.to.int (str.substr var12 var7 var19))))
(check-sat)